# ------------------  INPUTS TO MAIN PROGRAM  -------------------
max_step = 10000
stop_time =  5.00

# PROBLEM SIZE & GEOMETRY
geometry.is_periodic = 0 0 0
geometry.coord_sys   = 0  # 0 => cart, 1 => RZ  2=>spherical
geometry.prob_lo     =  0     0     0
geometry.prob_hi     =  1     1     1
amr.n_cell           = 32    32    32

# >>>>>>>>>>>>>  BC KEYWORDS <<<<<<<<<<<<<<<<<<<<<<
# Interior, UserBC, Symmetry, SlipWall, NoSlipWall
# >>>>>>>>>>>>>  BC KEYWORDS <<<<<<<<<<<<<<<<<<<<<<
pelec.lo_bc       = "Hard"   "SlipWall"   "SlipWall"
pelec.hi_bc       = "Hard"   "SlipWall"   "SlipWall"

# WHICH PHYSICS
pelec.do_hydro       = 1
pelec.diffuse_vel    = 0
pelec.diffuse_temp   = 0
pelec.diffuse_spec   = 0
pelec.do_react       = 0
pelec.do_mol         = 1


# TIME STEP CONTROL
#pelec.fixed_dt       = 0.001
#pelec.init_shrink    = 1.0     # scale back initial timestep
#pelec.do_mol         = 1
pelec.cfl            = 0.5     # cfl number for hyperbolic system
pelec.init_shrink    = 0.1     # scale back initial timestep
pelec.change_max     = 1.05    # scale back initial timestep
pelec.dt_cutoff      = 5.e-20  # level 0 timestep below which we halt

# DIAGNOSTICS & VERBOSITY
pelec.sum_interval   = 1       # timesteps between computing mass
pelec.v              = 1       # verbosity in PeleC.cpp
amr.v                = 1       # verbosity in Amr.cpp
amr.data_log         = datlog

# REFINEMENT / REGRIDDING
amr.max_level       = 3       # maximum level number allowed
amr.ref_ratio       = 2 2 2 2 # refinement ratio
amr.regrid_int      = 2 2 2 2 # how often to regrid
amr.blocking_factor = 8       # block factor in grid generation
amr.max_grid_size   = 64
amr.n_error_buf     = 2 2 2 2 # number of buffer cells in error est
amr.grid_eff        = 0.99
#amr.nosub          = 1

# CHECKPOINT FILES
amr.checkpoint_files_output = 0
amr.check_file      = chk        # root name of checkpoint file
amr.check_int       = 100        # number of timesteps between checkpoints

# PLOTFILES
amr.plot_files_output = 1
amr.plot_file       = plt  # root name of plotfile
amr.plot_int        = 1         # number of timesteps between plotfiles
amr.plot_vars  =  density
amr.derive_plot_vars = magvel pressure

# PROBLEM PARAMETERS
prob.rho_l = 1.0
prob.u_l = 2.0
prob.p_l = 1.0
prob.rho_r = 1.0
prob.u_r = 2.0
prob.p_r = 1.0
prob.idir = 1
prob.frac = 0.1

# TAGGING
tagging.denerr = 2
tagging.dengrad = 0.01
#tagging.max_denerr_lev = 3
#tagging.max_dengrad_lev = 3
#tagging.presserr = 3
#tagging.pressgrad = 0.01
#tagging.max_presserr_lev = 3
#tagging.max_pressgrad_lev = 3

# EB
ebd.boundary_grad_stencil_type = 0
eb2.geom_type = plane
eb2.plane_point = 0.5 0.0 0.0 
eb2.plane_normal = 0.2588 -0.9659 0.0 # Corresponds to a 15-degree ramp
#eb2.geom_type = all_regular
#pelec.eb_isothermal = 1
#pelec.eb_boundary_T = 1.0
